49
120
84	4
83	1
82	2
80	2
79	2
78	1
77	1
76	5
74	2
73	1
72	1
70	1
68	1
66	2
65	1
64	1
63	1
62	3
61	6
60	2
59	3
58	1
57	3
55	5
53	1
51	3
50	1
49	2
48	3
47	1
46	1
45	1
44	1
43	1
42	3
40	2
39	2
37	2
36	1
35	2
32	2
31	4
30	1
29	2
28	1
27	2
26	2
25	5
24	2
